p cnf 310 1209
5 0
-1 0
-2 0
-3 0
-4 0
35 10 0
-35 -10 0
6 0
-7 0
-8 0
-9 0
-10 0
1 11 36 0
-1 -11 0
-1 -36 0
-11 -36 0
11 12 13 14 15 0
-181 -182 0
-181 -183 0
-182 -183 0
-184 -185 0
-11 181 0
-11 184 0
-12 181 0
-12 185 0
-13 182 0
-13 184 0
-14 182 0
-14 185 0
-15 183 0
-15 184 0
-11 6 16 0
-11 6 41 0
-11 16 41 0
-12 7 17 0
-12 7 42 0
-12 17 42 0
-13 8 18 0
-13 8 43 0
-13 18 43 0
-14 9 19 0
-14 9 44 0
-14 19 44 0
-15 10 20 0
-15 10 45 0
-15 20 45 0
-11 -6 -16 -41 0
-12 -7 -17 -42 0
-13 -8 -18 -43 0
-14 -9 -19 -44 0
-15 -10 -20 -45 0
16 17 18 19 20 0
-186 -187 0
-186 -188 0
-187 -188 0
-189 -190 0
-16 186 0
-16 189 0
-17 186 0
-17 190 0
-18 187 0
-18 189 0
-19 187 0
-19 190 0
-20 188 0
-20 189 0
-16 11 21 0
-16 11 46 0
-16 21 46 0
-17 12 22 0
-17 12 47 0
-17 22 47 0
-18 13 23 0
-18 13 48 0
-18 23 48 0
-19 14 24 0
-19 14 49 0
-19 24 49 0
-20 15 25 0
-20 15 50 0
-20 25 50 0
-16 -11 -21 -46 0
-17 -12 -22 -47 0
-18 -13 -23 -48 0
-19 -14 -24 -49 0
-20 -15 -25 -50 0
21 22 23 24 25 0
-191 -192 0
-191 -193 0
-192 -193 0
-194 -195 0
-21 191 0
-21 194 0
-22 191 0
-22 195 0
-23 192 0
-23 194 0
-24 192 0
-24 195 0
-25 193 0
-25 194 0
-21 16 26 0
-21 16 51 0
-21 26 51 0
-22 17 27 0
-22 17 52 0
-22 27 52 0
-23 18 28 0
-23 18 53 0
-23 28 53 0
-24 19 29 0
-24 19 54 0
-24 29 54 0
-25 20 30 0
-25 20 55 0
-25 30 55 0
-21 -16 -26 -51 0
-22 -17 -27 -52 0
-23 -18 -28 -53 0
-24 -19 -29 -54 0
-25 -20 -30 -55 0
26 27 28 29 30 0
-196 -197 0
-196 -198 0
-197 -198 0
-199 -200 0
-26 196 0
-26 199 0
-27 196 0
-27 200 0
-28 197 0
-28 199 0
-29 197 0
-29 200 0
-30 198 0
-30 199 0
-26 56 0
-26 21 0
-27 57 0
-27 22 0
-28 58 0
-28 23 0
-29 59 0
-29 24 0
-30 60 0
-30 25 0
31 32 33 34 35 0
-201 -202 0
-201 -203 0
-202 -203 0
-204 -205 0
-31 201 0
-31 204 0
-32 201 0
-32 205 0
-33 202 0
-33 204 0
-34 202 0
-34 205 0
-35 203 0
-35 204 0
-31 61 36 0
-31 61 1 0
-31 36 1 0
-32 62 37 0
-32 62 2 0
-32 37 2 0
-33 63 38 0
-33 63 3 0
-33 38 3 0
-34 64 39 0
-34 64 4 0
-34 39 4 0
-35 65 40 0
-35 65 5 0
-35 40 5 0
-31 -61 -36 -1 0
-32 -62 -37 -2 0
-33 -63 -38 -3 0
-34 -64 -39 -4 0
-35 -65 -40 -5 0
36 37 38 39 40 0
-206 -207 0
-206 -208 0
-207 -208 0
-209 -210 0
-36 206 0
-36 209 0
-37 206 0
-37 210 0
-38 207 0
-38 209 0
-39 207 0
-39 210 0
-40 208 0
-40 209 0
-36 66 41 6 0
-36 66 41 31 0
-36 66 6 31 0
-36 41 6 31 0
-37 67 42 7 0
-37 67 42 32 0
-37 67 7 32 0
-37 42 7 32 0
-38 68 43 8 0
-38 68 43 33 0
-38 68 8 33 0
-38 43 8 33 0
-39 69 44 9 0
-39 69 44 34 0
-39 69 9 34 0
-39 44 9 34 0
-40 70 45 10 0
-40 70 45 35 0
-40 70 10 35 0
-40 45 10 35 0
-36 -66 -41 -6 0
-36 -66 -41 -31 0
-36 -66 -6 -31 0
-36 -41 -6 -31 0
-37 -67 -42 -7 0
-37 -67 -42 -32 0
-37 -67 -7 -32 0
-37 -42 -7 -32 0
-38 -68 -43 -8 0
-38 -68 -43 -33 0
-38 -68 -8 -33 0
-38 -43 -8 -33 0
-39 -69 -44 -9 0
-39 -69 -44 -34 0
-39 -69 -9 -34 0
-39 -44 -9 -34 0
-40 -70 -45 -10 0
-40 -70 -45 -35 0
-40 -70 -10 -35 0
-40 -45 -10 -35 0
41 42 43 44 45 0
-211 -212 0
-211 -213 0
-212 -213 0
-214 -215 0
-41 211 0
-41 214 0
-42 211 0
-42 215 0
-43 212 0
-43 214 0
-44 212 0
-44 215 0
-45 213 0
-45 214 0
-41 71 46 11 0
-41 71 46 36 0
-41 71 11 36 0
-41 46 11 36 0
-42 72 47 12 0
-42 72 47 37 0
-42 72 12 37 0
-42 47 12 37 0
-43 73 48 13 0
-43 73 48 38 0
-43 73 13 38 0
-43 48 13 38 0
-44 74 49 14 0
-44 74 49 39 0
-44 74 14 39 0
-44 49 14 39 0
-45 75 50 15 0
-45 75 50 40 0
-45 75 15 40 0
-45 50 15 40 0
-41 -71 -46 -11 0
-41 -71 -46 -36 0
-41 -71 -11 -36 0
-41 -46 -11 -36 0
-42 -72 -47 -12 0
-42 -72 -47 -37 0
-42 -72 -12 -37 0
-42 -47 -12 -37 0
-43 -73 -48 -13 0
-43 -73 -48 -38 0
-43 -73 -13 -38 0
-43 -48 -13 -38 0
-44 -74 -49 -14 0
-44 -74 -49 -39 0
-44 -74 -14 -39 0
-44 -49 -14 -39 0
-45 -75 -50 -15 0
-45 -75 -50 -40 0
-45 -75 -15 -40 0
-45 -50 -15 -40 0
46 47 48 49 50 0
-216 -217 0
-216 -218 0
-217 -218 0
-219 -220 0
-46 216 0
-46 219 0
-47 216 0
-47 220 0
-48 217 0
-48 219 0
-49 217 0
-49 220 0
-50 218 0
-50 219 0
-46 76 51 16 0
-46 76 51 41 0
-46 76 16 41 0
-46 51 16 41 0
-47 77 52 17 0
-47 77 52 42 0
-47 77 17 42 0
-47 52 17 42 0
-48 78 53 18 0
-48 78 53 43 0
-48 78 18 43 0
-48 53 18 43 0
-49 79 54 19 0
-49 79 54 44 0
-49 79 19 44 0
-49 54 19 44 0
-50 80 55 20 0
-50 80 55 45 0
-50 80 20 45 0
-50 55 20 45 0
-46 -76 -51 -16 0
-46 -76 -51 -41 0
-46 -76 -16 -41 0
-46 -51 -16 -41 0
-47 -77 -52 -17 0
-47 -77 -52 -42 0
-47 -77 -17 -42 0
-47 -52 -17 -42 0
-48 -78 -53 -18 0
-48 -78 -53 -43 0
-48 -78 -18 -43 0
-48 -53 -18 -43 0
-49 -79 -54 -19 0
-49 -79 -54 -44 0
-49 -79 -19 -44 0
-49 -54 -19 -44 0
-50 -80 -55 -20 0
-50 -80 -55 -45 0
-50 -80 -20 -45 0
-50 -55 -20 -45 0
55 0
-51 0
-52 0
-53 0
-54 0
85 60 25 50 0
-85 -60 0
-85 -25 0
-85 -50 0
-60 -25 0
-60 -50 0
-25 -50 0
56 57 58 59 60 0
-221 -222 0
-221 -223 0
-222 -223 0
-224 -225 0
-56 221 0
-56 224 0
-57 221 0
-57 225 0
-58 222 0
-58 224 0
-59 222 0
-59 225 0
-60 223 0
-60 224 0
-56 86 51 0
-56 86 26 0
-56 51 26 0
-57 87 52 0
-57 87 27 0
-57 52 27 0
-58 88 53 0
-58 88 28 0
-58 53 28 0
-59 89 54 0
-59 89 29 0
-59 54 29 0
-60 90 55 0
-60 90 30 0
-60 55 30 0
-56 -86 -51 -26 0
-57 -87 -52 -27 0
-58 -88 -53 -28 0
-59 -89 -54 -29 0
-60 -90 -55 -30 0
61 62 63 64 65 0
-226 -227 0
-226 -228 0
-227 -228 0
-229 -230 0
-61 226 0
-61 229 0
-62 226 0
-62 230 0
-63 227 0
-63 229 0
-64 227 0
-64 230 0
-65 228 0
-65 229 0
-61 91 66 0
-61 91 31 0
-61 66 31 0
-62 92 67 0
-62 92 32 0
-62 67 32 0
-63 93 68 0
-63 93 33 0
-63 68 33 0
-64 94 69 0
-64 94 34 0
-64 69 34 0
-65 95 70 0
-65 95 35 0
-65 70 35 0
-61 -91 -66 -31 0
-62 -92 -67 -32 0
-63 -93 -68 -33 0
-64 -94 -69 -34 0
-65 -95 -70 -35 0
66 67 68 69 70 0
-231 -232 0
-231 -233 0
-232 -233 0
-234 -235 0
-66 231 0
-66 234 0
-67 231 0
-67 235 0
-68 232 0
-68 234 0
-69 232 0
-69 235 0
-70 233 0
-70 234 0
-66 96 71 36 0
-66 96 71 61 0
-66 96 36 61 0
-66 71 36 61 0
-67 97 72 37 0
-67 97 72 62 0
-67 97 37 62 0
-67 72 37 62 0
-68 98 73 38 0
-68 98 73 63 0
-68 98 38 63 0
-68 73 38 63 0
-69 99 74 39 0
-69 99 74 64 0
-69 99 39 64 0
-69 74 39 64 0
-70 100 75 40 0
-70 100 75 65 0
-70 100 40 65 0
-70 75 40 65 0
-66 -96 -71 -36 0
-66 -96 -71 -61 0
-66 -96 -36 -61 0
-66 -71 -36 -61 0
-67 -97 -72 -37 0
-67 -97 -72 -62 0
-67 -97 -37 -62 0
-67 -72 -37 -62 0
-68 -98 -73 -38 0
-68 -98 -73 -63 0
-68 -98 -38 -63 0
-68 -73 -38 -63 0
-69 -99 -74 -39 0
-69 -99 -74 -64 0
-69 -99 -39 -64 0
-69 -74 -39 -64 0
-70 -100 -75 -40 0
-70 -100 -75 -65 0
-70 -100 -40 -65 0
-70 -75 -40 -65 0
71 72 73 74 75 0
-236 -237 0
-236 -238 0
-237 -238 0
-239 -240 0
-71 236 0
-71 239 0
-72 236 0
-72 240 0
-73 237 0
-73 239 0
-74 237 0
-74 240 0
-75 238 0
-75 239 0
-71 101 76 41 0
-71 101 76 66 0
-71 101 41 66 0
-71 76 41 66 0
-72 102 77 42 0
-72 102 77 67 0
-72 102 42 67 0
-72 77 42 67 0
-73 103 78 43 0
-73 103 78 68 0
-73 103 43 68 0
-73 78 43 68 0
-74 104 79 44 0
-74 104 79 69 0
-74 104 44 69 0
-74 79 44 69 0
-75 105 80 45 0
-75 105 80 70 0
-75 105 45 70 0
-75 80 45 70 0
-71 -101 -76 -41 0
-71 -101 -76 -66 0
-71 -101 -41 -66 0
-71 -76 -41 -66 0
-72 -102 -77 -42 0
-72 -102 -77 -67 0
-72 -102 -42 -67 0
-72 -77 -42 -67 0
-73 -103 -78 -43 0
-73 -103 -78 -68 0
-73 -103 -43 -68 0
-73 -78 -43 -68 0
-74 -104 -79 -44 0
-74 -104 -79 -69 0
-74 -104 -44 -69 0
-74 -79 -44 -69 0
-75 -105 -80 -45 0
-75 -105 -80 -70 0
-75 -105 -45 -70 0
-75 -80 -45 -70 0
76 77 78 79 80 0
-241 -242 0
-241 -243 0
-242 -243 0
-244 -245 0
-76 241 0
-76 244 0
-77 241 0
-77 245 0
-78 242 0
-78 244 0
-79 242 0
-79 245 0
-80 243 0
-80 244 0
-76 106 81 46 0
-76 106 81 71 0
-76 106 46 71 0
-76 81 46 71 0
-77 107 82 47 0
-77 107 82 72 0
-77 107 47 72 0
-77 82 47 72 0
-78 108 83 48 0
-78 108 83 73 0
-78 108 48 73 0
-78 83 48 73 0
-79 109 84 49 0
-79 109 84 74 0
-79 109 49 74 0
-79 84 49 74 0
-80 110 85 50 0
-80 110 85 75 0
-80 110 50 75 0
-80 85 50 75 0
-76 -106 -81 -46 0
-76 -106 -81 -71 0
-76 -106 -46 -71 0
-76 -81 -46 -71 0
-77 -107 -82 -47 0
-77 -107 -82 -72 0
-77 -107 -47 -72 0
-77 -82 -47 -72 0
-78 -108 -83 -48 0
-78 -108 -83 -73 0
-78 -108 -48 -73 0
-78 -83 -48 -73 0
-79 -109 -84 -49 0
-79 -109 -84 -74 0
-79 -109 -49 -74 0
-79 -84 -49 -74 0
-80 -110 -85 -50 0
-80 -110 -85 -75 0
-80 -110 -50 -75 0
-80 -85 -50 -75 0
82 0
-81 0
-83 0
-84 0
-85 0
112 87 52 77 0
-112 -87 0
-112 -52 0
-112 -77 0
-87 -52 0
-87 -77 0
-52 -77 0
86 87 88 89 90 0
-246 -247 0
-246 -248 0
-247 -248 0
-249 -250 0
-86 246 0
-86 249 0
-87 246 0
-87 250 0
-88 247 0
-88 249 0
-89 247 0
-89 250 0
-90 248 0
-90 249 0
-86 116 81 0
-86 116 56 0
-86 81 56 0
-87 117 82 0
-87 117 57 0
-87 82 57 0
-88 118 83 0
-88 118 58 0
-88 83 58 0
-89 119 84 0
-89 119 59 0
-89 84 59 0
-90 120 85 0
-90 120 60 0
-90 85 60 0
-86 -116 -81 -56 0
-87 -117 -82 -57 0
-88 -118 -83 -58 0
-89 -119 -84 -59 0
-90 -120 -85 -60 0
91 92 93 94 95 0
-251 -252 0
-251 -253 0
-252 -253 0
-254 -255 0
-91 251 0
-91 254 0
-92 251 0
-92 255 0
-93 252 0
-93 254 0
-94 252 0
-94 255 0
-95 253 0
-95 254 0
-91 121 96 0
-91 121 61 0
-91 96 61 0
-92 122 97 0
-92 122 62 0
-92 97 62 0
-93 123 98 0
-93 123 63 0
-93 98 63 0
-94 124 99 0
-94 124 64 0
-94 99 64 0
-95 125 100 0
-95 125 65 0
-95 100 65 0
-91 -121 -96 -61 0
-92 -122 -97 -62 0
-93 -123 -98 -63 0
-94 -124 -99 -64 0
-95 -125 -100 -65 0
98 0
-96 0
-97 0
-99 0
-100 0
128 103 68 93 0
-128 -103 0
-128 -68 0
-128 -93 0
-103 -68 0
-103 -93 0
-68 -93 0
101 102 103 104 105 0
-256 -257 0
-256 -258 0
-257 -258 0
-259 -260 0
-101 256 0
-101 259 0
-102 256 0
-102 260 0
-103 257 0
-103 259 0
-104 257 0
-104 260 0
-105 258 0
-105 259 0
-101 131 106 71 0
-101 131 106 96 0
-101 131 71 96 0
-101 106 71 96 0
-102 132 107 72 0
-102 132 107 97 0
-102 132 72 97 0
-102 107 72 97 0
-103 133 108 73 0
-103 133 108 98 0
-103 133 73 98 0
-103 108 73 98 0
-104 134 109 74 0
-104 134 109 99 0
-104 134 74 99 0
-104 109 74 99 0
-105 135 110 75 0
-105 135 110 100 0
-105 135 75 100 0
-105 110 75 100 0
-101 -131 -106 -71 0
-101 -131 -106 -96 0
-101 -131 -71 -96 0
-101 -106 -71 -96 0
-102 -132 -107 -72 0
-102 -132 -107 -97 0
-102 -132 -72 -97 0
-102 -107 -72 -97 0
-103 -133 -108 -73 0
-103 -133 -108 -98 0
-103 -133 -73 -98 0
-103 -108 -73 -98 0
-104 -134 -109 -74 0
-104 -134 -109 -99 0
-104 -134 -74 -99 0
-104 -109 -74 -99 0
-105 -135 -110 -75 0
-105 -135 -110 -100 0
-105 -135 -75 -100 0
-105 -110 -75 -100 0
106 107 108 109 110 0
-261 -262 0
-261 -263 0
-262 -263 0
-264 -265 0
-106 261 0
-106 264 0
-107 261 0
-107 265 0
-108 262 0
-108 264 0
-109 262 0
-109 265 0
-110 263 0
-110 264 0
-106 136 111 76 0
-106 136 111 101 0
-106 136 76 101 0
-106 111 76 101 0
-107 137 112 77 0
-107 137 112 102 0
-107 137 77 102 0
-107 112 77 102 0
-108 138 113 78 0
-108 138 113 103 0
-108 138 78 103 0
-108 113 78 103 0
-109 139 114 79 0
-109 139 114 104 0
-109 139 79 104 0
-109 114 79 104 0
-110 140 115 80 0
-110 140 115 105 0
-110 140 80 105 0
-110 115 80 105 0
-106 -136 -111 -76 0
-106 -136 -111 -101 0
-106 -136 -76 -101 0
-106 -111 -76 -101 0
-107 -137 -112 -77 0
-107 -137 -112 -102 0
-107 -137 -77 -102 0
-107 -112 -77 -102 0
-108 -138 -113 -78 0
-108 -138 -113 -103 0
-108 -138 -78 -103 0
-108 -113 -78 -103 0
-109 -139 -114 -79 0
-109 -139 -114 -104 0
-109 -139 -79 -104 0
-109 -114 -79 -104 0
-110 -140 -115 -80 0
-110 -140 -115 -105 0
-110 -140 -80 -105 0
-110 -115 -80 -105 0
111 112 113 114 115 0
-266 -267 0
-266 -268 0
-267 -268 0
-269 -270 0
-111 266 0
-111 269 0
-112 266 0
-112 270 0
-113 267 0
-113 269 0
-114 267 0
-114 270 0
-115 268 0
-115 269 0
-111 141 116 81 0
-111 141 116 106 0
-111 141 81 106 0
-111 116 81 106 0
-112 142 117 82 0
-112 142 117 107 0
-112 142 82 107 0
-112 117 82 107 0
-113 143 118 83 0
-113 143 118 108 0
-113 143 83 108 0
-113 118 83 108 0
-114 144 119 84 0
-114 144 119 109 0
-114 144 84 109 0
-114 119 84 109 0
-115 145 120 85 0
-115 145 120 110 0
-115 145 85 110 0
-115 120 85 110 0
-111 -141 -116 -81 0
-111 -141 -116 -106 0
-111 -141 -81 -106 0
-111 -116 -81 -106 0
-112 -142 -117 -82 0
-112 -142 -117 -107 0
-112 -142 -82 -107 0
-112 -117 -82 -107 0
-113 -143 -118 -83 0
-113 -143 -118 -108 0
-113 -143 -83 -108 0
-113 -118 -83 -108 0
-114 -144 -119 -84 0
-114 -144 -119 -109 0
-114 -144 -84 -109 0
-114 -119 -84 -109 0
-115 -145 -120 -85 0
-115 -145 -120 -110 0
-115 -145 -85 -110 0
-115 -120 -85 -110 0
116 117 118 119 120 0
-271 -272 0
-271 -273 0
-272 -273 0
-274 -275 0
-116 271 0
-116 274 0
-117 271 0
-117 275 0
-118 272 0
-118 274 0
-119 272 0
-119 275 0
-120 273 0
-120 274 0
-116 146 111 0
-116 146 86 0
-116 111 86 0
-117 147 112 0
-117 147 87 0
-117 112 87 0
-118 148 113 0
-118 148 88 0
-118 113 88 0
-119 149 114 0
-119 149 89 0
-119 114 89 0
-120 150 115 0
-120 150 90 0
-120 115 90 0
-116 -146 -111 -86 0
-117 -147 -112 -87 0
-118 -148 -113 -88 0
-119 -149 -114 -89 0
-120 -150 -115 -90 0
121 122 123 124 125 0
-276 -277 0
-276 -278 0
-277 -278 0
-279 -280 0
-121 276 0
-121 279 0
-122 276 0
-122 280 0
-123 277 0
-123 279 0
-124 277 0
-124 280 0
-125 278 0
-125 279 0
-121 151 126 0
-121 151 91 0
-121 126 91 0
-122 152 127 0
-122 152 92 0
-122 127 92 0
-123 153 128 0
-123 153 93 0
-123 128 93 0
-124 154 129 0
-124 154 94 0
-124 129 94 0
-125 155 130 0
-125 155 95 0
-125 130 95 0
-121 -151 -126 -91 0
-122 -152 -127 -92 0
-123 -153 -128 -93 0
-124 -154 -129 -94 0
-125 -155 -130 -95 0
129 0
-126 0
-127 0
-128 0
-130 0
159 134 99 124 0
-159 -134 0
-159 -99 0
-159 -124 0
-134 -99 0
-134 -124 0
-99 -124 0
131 132 133 134 135 0
-281 -282 0
-281 -283 0
-282 -283 0
-284 -285 0
-131 281 0
-131 284 0
-132 281 0
-132 285 0
-133 282 0
-133 284 0
-134 282 0
-134 285 0
-135 283 0
-135 284 0
-131 161 136 101 0
-131 161 136 126 0
-131 161 101 126 0
-131 136 101 126 0
-132 162 137 102 0
-132 162 137 127 0
-132 162 102 127 0
-132 137 102 127 0
-133 163 138 103 0
-133 163 138 128 0
-133 163 103 128 0
-133 138 103 128 0
-134 164 139 104 0
-134 164 139 129 0
-134 164 104 129 0
-134 139 104 129 0
-135 165 140 105 0
-135 165 140 130 0
-135 165 105 130 0
-135 140 105 130 0
-131 -161 -136 -101 0
-131 -161 -136 -126 0
-131 -161 -101 -126 0
-131 -136 -101 -126 0
-132 -162 -137 -102 0
-132 -162 -137 -127 0
-132 -162 -102 -127 0
-132 -137 -102 -127 0
-133 -163 -138 -103 0
-133 -163 -138 -128 0
-133 -163 -103 -128 0
-133 -138 -103 -128 0
-134 -164 -139 -104 0
-134 -164 -139 -129 0
-134 -164 -104 -129 0
-134 -139 -104 -129 0
-135 -165 -140 -105 0
-135 -165 -140 -130 0
-135 -165 -105 -130 0
-135 -140 -105 -130 0
139 0
-136 0
-137 0
-138 0
-140 0
169 144 109 134 0
-169 -144 0
-169 -109 0
-169 -134 0
-144 -109 0
-144 -134 0
-109 -134 0
143 0
-141 0
-142 0
-144 0
-145 0
173 148 113 138 0
-173 -148 0
-173 -113 0
-173 -138 0
-148 -113 0
-148 -138 0
-113 -138 0
146 147 148 149 150 0
-286 -287 0
-286 -288 0
-287 -288 0
-289 -290 0
-146 286 0
-146 289 0
-147 286 0
-147 290 0
-148 287 0
-148 289 0
-149 287 0
-149 290 0
-150 288 0
-150 289 0
-146 176 141 0
-146 176 116 0
-146 141 116 0
-147 177 142 0
-147 177 117 0
-147 142 117 0
-148 178 143 0
-148 178 118 0
-148 143 118 0
-149 179 144 0
-149 179 119 0
-149 144 119 0
-150 180 145 0
-150 180 120 0
-150 145 120 0
-146 -176 -141 -116 0
-147 -177 -142 -117 0
-148 -178 -143 -118 0
-149 -179 -144 -119 0
-150 -180 -145 -120 0
152 0
-151 0
-153 0
-154 0
-155 0
122 157 0
-122 -157 0
156 0
-157 0
-158 0
-159 0
-160 0
126 161 151 0
-126 -161 0
-126 -151 0
-161 -151 0
161 162 163 164 165 0
-291 -292 0
-291 -293 0
-292 -293 0
-294 -295 0
-161 291 0
-161 294 0
-162 291 0
-162 295 0
-163 292 0
-163 294 0
-164 292 0
-164 295 0
-165 293 0
-165 294 0
-161 131 166 0
-161 131 156 0
-161 166 156 0
-162 132 167 0
-162 132 157 0
-162 167 157 0
-163 133 168 0
-163 133 158 0
-163 168 158 0
-164 134 169 0
-164 134 159 0
-164 169 159 0
-165 135 170 0
-165 135 160 0
-165 170 160 0
-161 -131 -166 -156 0
-162 -132 -167 -157 0
-163 -133 -168 -158 0
-164 -134 -169 -159 0
-165 -135 -170 -160 0
166 167 168 169 170 0
-296 -297 0
-296 -298 0
-297 -298 0
-299 -300 0
-166 296 0
-166 299 0
-167 296 0
-167 300 0
-168 297 0
-168 299 0
-169 297 0
-169 300 0
-170 298 0
-170 299 0
-166 136 171 0
-166 136 161 0
-166 171 161 0
-167 137 172 0
-167 137 162 0
-167 172 162 0
-168 138 173 0
-168 138 163 0
-168 173 163 0
-169 139 174 0
-169 139 164 0
-169 174 164 0
-170 140 175 0
-170 140 165 0
-170 175 165 0
-166 -136 -171 -161 0
-167 -137 -172 -162 0
-168 -138 -173 -163 0
-169 -139 -174 -164 0
-170 -140 -175 -165 0
171 172 173 174 175 0
-301 -302 0
-301 -303 0
-302 -303 0
-304 -305 0
-171 301 0
-171 304 0
-172 301 0
-172 305 0
-173 302 0
-173 304 0
-174 302 0
-174 305 0
-175 303 0
-175 304 0
-171 141 176 0
-171 141 166 0
-171 176 166 0
-172 142 177 0
-172 142 167 0
-172 177 167 0
-173 143 178 0
-173 143 168 0
-173 178 168 0
-174 144 179 0
-174 144 169 0
-174 179 169 0
-175 145 180 0
-175 145 170 0
-175 180 170 0
-171 -141 -176 -166 0
-172 -142 -177 -167 0
-173 -143 -178 -168 0
-174 -144 -179 -169 0
-175 -145 -180 -170 0
176 177 178 179 180 0
-306 -307 0
-306 -308 0
-307 -308 0
-309 -310 0
-176 306 0
-176 309 0
-177 306 0
-177 310 0
-178 307 0
-178 309 0
-179 307 0
-179 310 0
-180 308 0
-180 309 0
-176 146 0
-176 171 0
-177 147 0
-177 172 0
-178 148 0
-178 173 0
-179 149 0
-179 174 0
-180 150 0
-180 175 0
31 36 41 46 56 0
61 66 71 76 86 0
91 101 106 111 116 0
121 131 146 0
92 102 107 112 117 0
122 132 147 0
37 67 0
12 42 72 102 132 162 0
17 47 77 107 167 0
13 43 73 103 133 163 0
18 48 78 108 168 0
14 44 74 104 134 164 0
40 70 0
15 45 75 105 135 165 0
20 50 80 110 170 0